sifdecoder -A pc64.lnx.gfo -st   A5ENINDL

 Problem name: A5ENINDL

 Double precision version will be formed

 The objective function uses 2 linear groups
 
 There are 15002 linear equality constraints
 
 There are 10002 free variables
 There are 10000 variables bounded only from below 
 There are 25004 fixed variables
 
 
 File successfully decoded
 CUTEST: tools (double precision version) compiled successfully
 CUTEst: ipopt (double precision version) compiled successfully

******************************************************************************
This program contains Ipopt, a library for large-scale nonlinear optimization.
 Ipopt is released as open source code under the Eclipse Public License (EPL).
         For more information visit http://projects.coin-or.org/Ipopt
******************************************************************************

This is Ipopt version trunk, running with linear solver ma57.

Number of nonzeros in equality constraint Jacobian...:    54991
Number of nonzeros in inequality constraint Jacobian.:        0
Number of nonzeros in Lagrangian Hessian.............:    25002

Total number of variables............................:    20002
                     variables with only lower bounds:    10000
                variables with lower and upper bounds:        0
                     variables with only upper bounds:        0
Total number of equality constraints.................:    15002
Total number of inequality constraints...............:        0
        inequality constraints with only lower bounds:        0
   inequality constraints with lower and upper bounds:        0
        inequality constraints with only upper bounds:        0

iter    objective    inf_pr   inf_du lg(mu)  ||d||  lg(rg) alpha_du alpha_pr  ls
   0  4.9999900e-01 9.92e+01 7.00e-01  -1.0 0.00e+00    -  0.00e+00 0.00e+00   0
   1  4.2744585e-01 9.90e+01 7.18e-01  -1.0 1.02e+02    -  1.98e-03 2.02e-03h  1
   2  5.2152552e-01 9.79e+01 1.95e+00  -1.0 1.69e+01    -  2.35e-03 1.10e-02f  1
   3  5.7838425e+00 9.09e+01 3.59e+00  -1.0 9.92e+00    -  1.39e-02 7.25e-02f  1
   4  5.6180915e+02 5.49e-13 7.05e+00  -1.0 9.20e+00    -  1.12e-01 1.00e+00f  1
   5  2.6737853e+02 5.06e-14 1.48e+00  -1.0 4.76e+00    -  1.00e+00 4.38e-01f  1
   6  5.8766589e+02 8.90e-14 1.00e-06  -1.0 1.67e+01    -  1.00e+00 1.00e+00f  1
   7  9.7702018e+01 6.63e-13 2.83e-08  -2.5 1.36e+01    -  1.00e+00 1.00e+00f  1
   8  3.2872288e+01 1.31e-13 2.83e-08  -2.5 6.68e+00    -  1.00e+00 1.00e+00f  1
   9  7.0350969e+00 3.54e-13 1.50e-09  -3.8 3.87e+00    -  1.00e+00 1.00e+00f  1
iter    objective    inf_pr   inf_du lg(mu)  ||d||  lg(rg) alpha_du alpha_pr  ls
  10  2.2326428e+00 5.31e-13 1.50e-09  -3.8 1.89e+00    -  1.00e+00 1.00e+00f  1
  11  4.7203480e-01 1.51e-13 1.85e-11  -5.7 1.05e+00    -  1.00e+00 1.00e+00f  1
  12  1.2366954e-01 3.58e-13 1.85e-11  -5.7 5.25e-01    -  1.00e+00 1.00e+00f  1
  13  3.6613631e-02 4.53e-13 1.84e-11  -5.7 2.57e-01    -  1.00e+00 1.00e+00f  1
  14  7.9217226e-03 1.11e-12 2.66e-14  -8.6 1.39e-01    -  1.00e+00 1.00e+00f  1
  15  1.8869047e-03 2.50e-13 2.66e-14  -8.6 6.95e-02    -  1.00e+00 1.00e+00f  1
  16  3.7820972e-04 1.29e-13 2.66e-14  -8.6 3.47e-02    -  1.00e+00 1.00e+00f  1
  17  1.0535880e-06 1.92e-13 2.66e-14  -8.6 1.72e-02    -  1.00e+00 1.00e+00f  1
  18 -9.3176663e-05 7.48e-13 2.66e-14  -8.6 8.40e-03    -  1.00e+00 1.00e+00f  1
  19 -1.2273867e-04 7.08e-13 1.07e-14  -9.0 4.34e-03    -  1.00e+00 1.00e+00f  1

Number of Iterations....: 19

                                   (scaled)                 (unscaled)
Objective...............:  -1.2273867262413746e-04   -1.2273867262413746e-04
Dual infeasibility......:   1.0658141036401503e-14    1.0658141036401503e-14
Constraint violation....:   7.0832228971084987e-13    7.0832228971084987e-13
Complementarity.........:   4.0020791706043184e-09    4.0020791706043184e-09
Overall NLP error.......:   4.0020791706043184e-09    4.0020791706043184e-09


Number of objective function evaluations             = 20
Number of objective gradient evaluations             = 20
Number of equality constraint evaluations            = 20
Number of inequality constraint evaluations          = 0
Number of equality constraint Jacobian evaluations   = 20
Number of inequality constraint Jacobian evaluations = 0
Number of Lagrangian Hessian evaluations             = 19
Total CPU secs in IPOPT (w/o function evaluations)   =      1.474
Total CPU secs in NLP function evaluations           =      0.849

EXIT: Optimal Solution Found.

************************ CUTEst statistics ************************


 Package used            :  IPOPT
 Problem                 :  A5ENINDL  
 # variables             =           45006
 # constraints           =           15002
 # objective functions   =        0.4100000E+02
 # objective gradients   =        0.2100000E+02
 # objective Hessians    =        0.2000000E+02
 # Hessian-vector prdct  =        0.0000000E+00
 # constraints functions =        0.4200000E+02
 # constraints gradients =        0.2200000E+02
 # constraints Hessians  =        0.2000000E+02
 Exit code               =               0
 Final f                 =       -1.2273867262413746D-04
 Bounds feasibility      =        9.9090298861548751D-09
 Set up time             =            0.79 seconds
 Solve time              =            4.61 seconds


******************************************************************

